TYPE : Vertex Cover
DIMENSION: 39
EDGE_DATA_SECTION:
0 1
0 9
0 12
0 14
0 17
0 18
0 19
0 23
0 26
0 28
0 29
0 32
0 36
1 2
1 17
1 27
1 28
1 32
1 34
2 9
2 10
2 15
2 17
2 18
2 21
2 22
2 25
2 31
2 34
2 35
2 36
3 7
3 12
3 15
3 26
3 27
3 29
3 30
3 32
3 33
4 8
4 10
4 14
4 15
4 16
4 17
4 20
4 22
4 25
4 37
5 10
5 11
5 14
5 20
5 22
5 24
5 27
5 31
5 33
5 34
5 35
6 7
6 11
6 20
6 21
6 24
6 29
6 30
6 35
6 37
6 38
7 8
7 9
7 15
7 21
7 23
7 26
7 29
7 30
7 32
7 33
7 35
7 37
7 38
8 15
8 16
8 17
8 23
8 31
8 32
9 22
9 24
9 36
10 15
10 16
10 18
10 22
10 29
10 34
10 37
11 12
11 13
11 15
11 23
11 24
11 33
12 13
12 14
12 18
12 23
12 24
12 31
12 32
12 34
13 14
13 16
13 31
13 32
13 34
13 35
13 37
14 18
14 19
14 21
14 22
14 24
14 26
14 29
14 33
14 34
14 38
15 17
15 22
15 23
15 29
15 31
16 17
16 19
16 20
16 22
16 23
16 25
16 30
16 36
16 38
17 30
17 35
18 22
18 26
18 30
18 32
18 33
18 35
18 36
19 21
19 24
19 28
19 29
19 36
20 22
20 23
20 27
20 33
20 34
21 22
21 23
21 28
21 30
21 32
21 33
21 36
22 25
22 26
22 29
22 32
22 33
22 35
22 36
23 29
23 33
24 27
24 30
24 34
24 37
25 29
25 32
26 27
26 28
26 31
26 33
27 30
27 35
27 38
28 29
28 31
28 32
28 33
28 36
28 37
28 38
29 32
29 33
29 34
29 37
30 34
31 34
32 34
32 35
32 36
32 37
33 35
33 36
33 37
33 38
35 37
37 38
-1
VERTEX_DEGREE:
13.0 7.0 13.0 9.0 10.0 11.0 10.0 15.0 8.0 6.0 10.0 8.0 11.0 9.0 15.0 12.0 13.0 9.0 12.0 8.0 9.0 12.0 18.0 11.0 11.0 6.0 10.0 9.0 12.0 16.0 10.0 9.0 17.0 17.0 13.0 12.0 11.0 12.0 8.0
VERTEX_COVER:
0 2 3 4 5 6 7 12 13 14 15 16 17 18 21 22 23 24 27 28 29 31 32 33 34 36 37
EOF
